88
Time limit set to 60 seconds
Running CP solver
/home/omastto1/General-Optimization-Solver/src/solvers/mmrcpsp.py:42(stream:108:6): Warning: Cumulative expression 'pulse': height is zero, expression is zero everywhere.
                                                                                               VarCumulAtom_149 = pulse(task_0_mode_0, 0)
/home/omastto1/General-Optimization-Solver/src/solvers/mmrcpsp.py:42(stream:108:1252): Warning: Cumulative expression 'pulse': height is zero, expression is zero everywhere.
                                                                                                  VarCumulAtom_198 = pulse(task_17_mode_0, 0)
/home/omastto1/General-Optimization-Solver/src/solvers/mmrcpsp.py:42(stream:109:6): Warning: Cumulative expression 'pulse': height is zero, expression is zero everywhere.
                                                                                               VarCumulAtom_202 = pulse(task_0_mode_0, 0)
/home/omastto1/General-Optimization-Solver/src/solvers/mmrcpsp.py:42(stream:109:1253): Warning: Cumulative expression 'pulse': height is zero, expression is zero everywhere.
                                                                                                  VarCumulAtom_251 = pulse(task_17_mode_0, 0)
 ! --------------------------------------------------- CP Optimizer 20.1.0.0 --
 ! Minimization problem - 69 variables, 51 constraints
 ! TimeLimit            = 60
 ! Workers              = 14
 ! LogVerbosity         = Terse
 ! Initial process time : 0.01s (0.01s extraction + 0.00s propagation)
 !  . Log search space  : 164.6 (before), 164.6 (after)
 !  . Memory usage      : 754.6 kB (before), 754.6 kB (after)
 ! Using parallel search with 14 workers.
 ! ----------------------------------------------------------------------------
 !          Best Branches  Non-fixed    W       Branch decision
                        0         69                 -
 + New bound is 21
 ! Using iterative diving.
 ! Using temporal relaxation.
 *            37       49  0.37s        1      (gap is 43.24%)
 *            31      108  0.37s        1      (gap is 32.26%)
 *            30      148  0.37s        1      (gap is 30.00%)
 *            29      240  0.37s        1      (gap is 27.59%)
 *            27      294  0.37s        1      (gap is 22.22%)
 *            26      372  0.37s        1      (gap is 19.23%)
 *            25      394  0.37s        1      (gap is 16.00%)
 *            24      437  0.37s        1      (gap is 12.50%)
 *            21      755  0.37s        1      (gap is 0.00%)
 ! ----------------------------------------------------------------------------
 ! Search completed, 9 solutions found.
 ! Best objective         : 21 (optimal - effective tol. is 0)
 ! Best bound             : 21
 ! ----------------------------------------------------------------------------
 ! Number of branches     : 56532
 ! Number of fails        : 3025
 ! Total memory usage     : 9.7 MB (9.6 MB CP Optimizer + 0.1 MB Concert)
 ! Time spent in solve    : 0.38s (0.38s engine + 0.01s extraction)
 ! Search speed (br. / s) : 152789.2
 ! ----------------------------------------------------------------------------
task_0: (start=0, end=0, size=0, length=0)
Task 0 is scheduled in mode 0 from 0 to 0
task_1: (start=0, end=2, size=2, length=2)
Task 1 is scheduled in mode 0 from 0 to 2
task_2: (start=0, end=1, size=1, length=1)
Task 2 is scheduled in mode 0 from 0 to 1
task_3: (start=0, end=4, size=4, length=4)
Task 3 is scheduled in mode 1 from 0 to 4
task_4: (start=2, end=3, size=1, length=1)
Task 4 is scheduled in mode 0 from 2 to 3
task_5: (start=3, end=13, size=10, length=10)
Task 5 is scheduled in mode 2 from 3 to 13
task_6: (start=1, end=5, size=4, length=4)
Task 6 is scheduled in mode 0 from 1 to 5
task_7: (start=5, end=8, size=3, length=3)
Task 7 is scheduled in mode 0 from 5 to 8
task_8: (start=5, end=12, size=7, length=7)
Task 8 is scheduled in mode 2 from 5 to 12
task_9: (start=3, end=7, size=4, length=4)
Task 9 is scheduled in mode 1 from 3 to 7
task_10: (start=7, end=9, size=2, length=2)
Task 10 is scheduled in mode 1 from 7 to 9
task_11: (start=12, end=13, size=1, length=1)
Task 11 is scheduled in mode 0 from 12 to 13
task_12: (start=9, end=15, size=6, length=6)
Task 12 is scheduled in mode 2 from 9 to 15
task_13: (start=8, end=12, size=4, length=4)
Task 13 is scheduled in mode 0 from 8 to 12
task_14: (start=12, end=21, size=9, length=9)
Task 14 is scheduled in mode 2 from 12 to 21
task_15: (start=13, end=15, size=2, length=2)
Task 15 is scheduled in mode 1 from 13 to 15
task_16: (start=15, end=21, size=6, length=6)
Task 16 is scheduled in mode 2 from 15 to 21
task_17: (start=21, end=21, size=0, length=0)
Task 17 is scheduled in mode 0 from 21 to 21
Optimal solution found
Objective value: 21
Solution is optimal.
